
--- Job BM_ref.gms Start 04/12/18 17:19:12 25.0.1 r65189 WEX-WEI x86 64bit/MS Windows
GAMS 25.0.1   Copyright (C) 1987-2018 GAMS Development. All rights reserved
Licensee: Eval License Carnegie Mellon University        G180112/0001AS-GEN
          Dept. of Chemical Engineering                              DC9476
          License for teaching and research at degree granting institutions
          License Admin: Ignacio E. Grossmann                              
--- Starting continued compilation
--- Workfile was generated under GAMS version WEX250-250
--- BM_ref.gms(51) 3 Mb
--- .max_time_ref.gms(5) 3 Mb
--- BM_ref.gms(72) 3 Mb
--- Starting execution: elapsed 0:00:00.007
--- BM_ref.gms(249) 3 Mb
--- Generating RMIP model prob
--- BM_ref.gms(253) 3 Mb
---   518 rows  125 columns  1,513 non-zeroes
---   74 discrete-columns
--- Executing CPLEX: elapsed 0:00:00.020

IBM ILOG CPLEX   25.0.1 r65189 Released Jan 17, 2018 WEI x86 64bit/MS Windows 
--- GAMS/Cplex licensed for continuous and discrete problems.
Cplex 12.8.0.0

Reading parameter(s) from "C:\Users\debernal\Dropbox\Ubuntu\GDP_NN\GDP_Refomulation_NN\GAMS\Logic_based_B_B_contracts1\cplex.opt"
>>  randomseed 1;
*** Value Error line 1: Integer expected, for option "randomseed" saw "1;"
*** Value Error line 1:    Option ignored
Finished reading from "C:\Users\debernal\Dropbox\Ubuntu\GDP_NN\GDP_Refomulation_NN\GAMS\Logic_based_B_B_contracts1\cplex.opt"
Reading data...
Starting Cplex...
Space for names approximately 0.01 Mb
Use option 'names no' to turn use of names off
CPXPARAM_Advance                                 0
CPXPARAM_Simplex_Limits_Iterations               2000000000
CPXPARAM_TimeLimit                               7200
CPXPARAM_Threads                                 1
CPXPARAM_Parallel                                1
CPXPARAM_Tune_TimeLimit                          1440
Tried aggregator 1 time.
LP Presolve eliminated 21 rows and 22 columns.
Reduced LP has 497 rows, 103 columns, and 1451 nonzeros.
Presolve time = 0.09 sec. (0.24 ticks)
Initializing dual steep norms . . .

Iteration log . . .
Iteration:     1   Dual objective     =             0.000000
LP status(1): optimal
Cplex Time: 0.09sec (det. 1.03 ticks)

Optimal solution found.
Objective :           0.000000

--- Restarting execution
--- BM_ref.gms(253) 2 Mb
--- Reading solution for model prob
--- Executing after solve: elapsed 0:00:00.196
--- BM_ref.gms(255) 3 Mb
--- Generating MIP model prob
--- BM_ref.gms(257) 3 Mb
---   518 rows  125 columns  1,513 non-zeroes
---   74 discrete-columns
--- Executing CPLEX: elapsed 0:00:00.208

IBM ILOG CPLEX   25.0.1 r65189 Released Jan 17, 2018 WEI x86 64bit/MS Windows 
--- GAMS/Cplex licensed for continuous and discrete problems.
Cplex 12.8.0.0

Reading parameter(s) from "C:\Users\debernal\Dropbox\Ubuntu\GDP_NN\GDP_Refomulation_NN\GAMS\Logic_based_B_B_contracts1\cplex.opt"
>>  randomseed 1;
*** Value Error line 1: Integer expected, for option "randomseed" saw "1;"
*** Value Error line 1:    Option ignored
Finished reading from "C:\Users\debernal\Dropbox\Ubuntu\GDP_NN\GDP_Refomulation_NN\GAMS\Logic_based_B_B_contracts1\cplex.opt"
Reading data...
Starting Cplex...
Space for names approximately 0.01 Mb
Use option 'names no' to turn use of names off
CPXPARAM_Advance                                 0
CPXPARAM_Simplex_Limits_Iterations               2000000000
CPXPARAM_TimeLimit                               7200
CPXPARAM_WorkDir                                 "C:\Users\debernal\Dropbox\Ubuntu\GDP_NN\GDP_Refomulation_NN\GAMS\Logic_based_B_B_contracts1\225a\"
CPXPARAM_Threads                                 1
CPXPARAM_Parallel                                1
CPXPARAM_Tune_TimeLimit                          1440
CPXPARAM_MIP_Tolerances_AbsMIPGap                0
CPXPARAM_MIP_Tolerances_MIPGap                   0.001
CPXPARAM_MIP_Display                             4
Tried aggregator 2 times.
MIP Presolve eliminated 181 rows and 38 columns.
MIP Presolve modified 80 coefficients.
Aggregator did 1 substitutions.
Reduced MIP has 336 rows, 86 columns, and 969 nonzeros.
Reduced MIP has 57 binaries, 0 generals, 0 SOSs, and 0 indicators.
Presolve time = 0.00 sec. (0.96 ticks)
Found incumbent of value 35312.343445 after 0.00 sec. (1.13 ticks)
Probing fixed 2 vars, tightened 0 bounds.
Probing time = 0.00 sec. (0.65 ticks)
Cover probing fixed 0 vars, tightened 1 bounds.
Tried aggregator 1 time.
MIP Presolve eliminated 18 rows and 2 columns.
MIP Presolve modified 17 coefficients.
Reduced MIP has 318 rows, 84 columns, and 915 nonzeros.
Reduced MIP has 55 binaries, 0 generals, 0 SOSs, and 0 indicators.
Presolve time = 0.00 sec. (0.61 ticks)
Probing time = 0.00 sec. (0.60 ticks)
Clique table members: 334.
MIP emphasis: balance optimality and feasibility.
MIP search method: dynamic search.
Parallel mode: none, using 1 thread.
Tried aggregator 1 time.
No LP presolve or aggregator reductions.
Presolve time = 0.00 sec. (0.11 ticks)
Initializing dual steep norms . . .

Iteration log . . .
Iteration:     1   Dual objective     =           642.400000
Root relaxation solution time = 0.00 sec. (0.67 ticks)

        Nodes                                         Cuts/
   Node  Left     Objective  IInf  Best Integer    Best Bound    ItCnt     Gap

*     0+    0                        35312.3434      642.4000            98.18%
Found incumbent of value 35312.343445 after 0.02 sec. (4.12 ticks)
      0     0      876.9885    32    35312.3434      876.9885       37   97.52%
*     0+    0                        13446.7280      876.9885            93.48%
Found incumbent of value 13446.728000 after 0.02 sec. (4.56 ticks)
      0     0     2979.9256    34    13446.7280      Cuts: 54      106   77.84%
*     0+    0                        12050.5570     2979.9256            75.27%
Found incumbent of value 12050.557000 after 0.02 sec. (8.29 ticks)
      0     0     3769.9121    34    12050.5570      Cuts: 35      147   68.72%
      0     0     3907.2043    31    12050.5570      Cuts: 29      167   67.58%
      0     0     3913.9899    31    12050.5570       Cuts: 8      173   67.52%
      0     0     3933.7419    31    12050.5570       Cuts: 4      180   67.36%
*     0+    0                         8969.7610     3933.7419            56.14%
Found incumbent of value 8969.761000 after 0.03 sec. (16.46 ticks)
      0     0     3952.9950    31     8969.7610       Cuts: 7      186   55.93%
      0     0     3972.4734    32     8969.7610       Cuts: 8      191   55.71%
      0     0     3975.6382    31     8969.7610       Cuts: 8      196   55.68%
      0     0     3976.5436    32     8969.7610       Cuts: 3      198   55.67%
      0     0     3980.0106    31     8969.7610       Cuts: 4      201   55.63%
      0     0     3983.7146    32     8969.7610       Cuts: 3      207   55.59%
      0     0     3985.0254    31     8969.7610    MIRcuts: 3      210   55.57%
      0     0     3985.3099    32     8969.7610    MIRcuts: 2      212   55.57%
*     0+    0                         6561.8670     3985.3099            39.27%
Found incumbent of value 6561.867000 after 0.08 sec. (36.01 ticks)
      0     2     3985.3099    32     6561.8670     4010.2723      212   38.89%
Elapsed time = 0.08 sec. (37.51 ticks, tree = 0.01 MB, solutions = 5)
*    13     9      integral     0     6298.2730     4244.9301      384   32.60%
                                                      Cuts: 8                  
Found incumbent of value 6298.273000 after 0.09 sec. (43.14 ticks)

Implied bound cuts applied:  4
Flow cuts applied:  6
Mixed integer rounding cuts applied:  22
Gomory fractional cuts applied:  7

Root node processing (before b&c):
  Real time             =    0.08 sec. (37.51 ticks)
Sequential b&c:
  Real time             =    0.05 sec. (28.19 ticks)
                          ------------
Total (root+branch&cut) =    0.13 sec. (65.70 ticks)
MIP status(101): integer optimal solution
Cplex Time: 0.13sec (det. 65.70 ticks)
Fixing integer variables, and solving final LP...
CPXPARAM_Advance                                 2
CPXPARAM_Simplex_Limits_Iterations               2000000000
CPXPARAM_TimeLimit                               7200
CPXPARAM_WorkDir                                 "C:\Users\debernal\Dropbox\Ubuntu\GDP_NN\GDP_Refomulation_NN\GAMS\Logic_based_B_B_contracts1\225a\"
CPXPARAM_Threads                                 1
CPXPARAM_Parallel                                1
CPXPARAM_Tune_TimeLimit                          1440
CPXPARAM_MIP_Tolerances_AbsMIPGap                0
CPXPARAM_MIP_Tolerances_MIPGap                   0.001
CPXPARAM_MIP_Display                             4
Tried aggregator 1 time.
LP Presolve eliminated 502 rows and 104 columns.
Aggregator did 1 substitutions.
Reduced LP has 15 rows, 20 columns, and 37 nonzeros.
Presolve time = 0.00 sec. (0.20 ticks)

Iteration log . . .
Iteration:     1   Scaled dual infeas =             0.000000
Iteration:     2   Dual objective     =          4876.459000
Fixed MIP status(1): optimal
Cplex Time: 0.00sec (det. 0.40 ticks)

Proven optimal solution.

MIP Solution:         6298.273000    (1399 iterations, 132 nodes)
Final Solve:          6298.273000    (11 iterations)

Best possible:        6298.273000
Absolute gap:            0.000000
Relative gap:            0.000000

--- Restarting execution
--- BM_ref.gms(257) 2 Mb
--- Reading solution for model prob
--- Executing after solve: elapsed 0:00:00.514
--- BM_ref.gms(266) 3 Mb
--- GDX File C:\Users\debernal\Dropbox\Ubuntu\GDP_NN\GDP_Refomulation_NN\GAMS\Logic_based_B_B_contracts1\res_prob.gdx
--- BM_ref.gms(268) 3 Mb
--- GDX File C:\Users\debernal\Dropbox\Ubuntu\GDP_NN\GDP_Refomulation_NN\GAMS\Logic_based_B_B_contracts1\BigM.gdx
*** Status: Normal completion
--- Job BM_ref.gms Stop 04/12/18 17:19:12 elapsed 0:00:00.524
